Test: fpga13_9_sat.cnf
Options: -no-inverting-opt -activity-look-freq=1
WARNING: for repeatability, setting FPU to use double precision
============================[ Problem Statistics ]=============================
|                                                                             |
|  Number of symmetries:           26                                         |
|  Number of invertingSyms:         0                                         |
|  Number of variables:           176                                         |
|  Number of clauses:             759                                         |
|  Parse time:                   0.00 s                                       |
|                                                                             |
============================[ Search Statistics ]==============================
| Conflicts |          ORIGINAL         |          LEARNT          | Progress |
|           |    Vars  Clauses Literals |    Limit  Clauses Lit/Cl |          |
===============================================================================
|       100 |     176      759     2031 |      278      220     44 |  0.003 % |
===============================================================================
restarts              : 2
conflicts             : 175            (21875 /sec)
symconflicts          : 59             (7375 /sec)
decisions             : 456            (0.00 % random) (57000 /sec)
propagations          : 9263           (1157875 /sec)
sympropagations       : 227            (28375 /sec)
conflict literals     : 5786           (2.13 % deleted)
literals     : 5786           (2.13 % deleted)

HEURISTIC USAGES
random                : 0           
activity w/ lookahead : 455         
activity no lookahead : 0           
original sp           : 0           
sym count             : 0           

Memory used           : 5.00 MB
CPU time              : 0.008 s

SATISFIABLE
